
Gurobi 10.0.1 (linux64) logging started Sun 13 Aug 2023 05:34:37 PM CDT

Set parameter LogFile to value "/home/dlcole3/graph_abstraction/plasmoexamples/SHP_serial/SHP_reserve_requirements/gurobi_logs/logfile21.log"
Set parameter NodefileStart to value 0.0005
Set parameter TimeLimit to value 36000
Gurobi Optimizer version 10.0.1 build v10.0.1rc0 (linux64)

CPU model: Intel(R) Xeon(R) CPU E5-2698 v4 @ 2.20GHz, instruction set [SSE2|AVX|AVX2]
Thread count: 40 physical cores, 80 logical processors, using up to 8 threads


Warning: excessive time spent in model updates.
Consider calling update less frequently.

Optimize a model with 1105538 rows, 641709 columns and 4644125 nonzeros
Model fingerprint: 0xdb93ad61
Variable types: 599982 continuous, 41727 integer (41727 binary)
Coefficient statistics:
  Matrix range     [5e-02, 2e+04]
  Objective range  [2e-01, 8e+04]
  Bounds range     [5e-02, 2e+04]
  RHS range        [5e-05, 7e+03]
Presolve removed 263157 rows and 118081 columns (presolve time = 5s) ...
Presolve removed 276869 rows and 124819 columns (presolve time = 10s) ...
Presolve removed 278965 rows and 127912 columns (presolve time = 15s) ...
Presolve removed 284770 rows and 132483 columns (presolve time = 20s) ...
Presolve removed 291605 rows and 132674 columns (presolve time = 25s) ...
Presolve removed 292345 rows and 133390 columns (presolve time = 30s) ...
Presolve removed 292385 rows and 133440 columns (presolve time = 35s) ...
Presolve removed 292385 rows and 133440 columns (presolve time = 40s) ...
Presolve removed 292685 rows and 133460 columns (presolve time = 45s) ...
Sparsify removed 206558 nonzeros (5%)
Presolve removed 292685 rows and 132445 columns
Presolve time: 47.69s
Presolved: 812853 rows, 509264 columns, 3963984 nonzeros
Variable types: 475630 continuous, 33634 integer (33577 binary)

Deterministic concurrent LP optimizer: primal simplex, dual simplex, and barrier
Showing barrier log only...

Root barrier log...

Elapsed ordering time = 5s
Elapsed ordering time = 18s
Elapsed ordering time = 21s
Elapsed ordering time = 25s
Elapsed ordering time = 32s
Elapsed ordering time = 36s
Elapsed ordering time = 40s
Elapsed ordering time = 45s
Elapsed ordering time = 48s
Elapsed ordering time = 50s
Elapsed ordering time = 55s
Elapsed ordering time = 61s
Elapsed ordering time = 65s
Elapsed ordering time = 70s
Ordering time: 72.68s

Barrier statistics:
 Dense cols : 217
 AA' NZ     : 2.368e+07
 Factor NZ  : 3.872e+08 (roughly 4.0 GB of memory)
 Factor Ops : 2.031e+12 (roughly 17 seconds per iteration)
 Threads    : 5

                  Objective                Residual
Iter       Primal          Dual         Primal    Dual     Compl     Time
   0  -2.14526630e+11 -1.79996947e+13  1.25e+04 1.06e+04  1.17e+08   146s
   1  -1.50915365e+11 -1.26227422e+13  8.86e+03 1.44e+06  7.15e+07   157s
   2  -7.49374511e+10 -8.01894130e+12  4.56e+03 1.96e+05  3.46e+07   173s
   3  -2.09607806e+10 -3.03007189e+12  1.44e+03 3.83e+00  1.01e+07   191s
   4  -4.57508720e+09 -1.33255812e+12  4.99e+02 5.15e-01  3.33e+06   209s
   5   2.86132796e+09 -6.53951260e+11  1.08e+02 4.29e-01  8.60e+05   227s
   6   3.92749224e+09 -2.57012960e+11  5.24e+01 6.32e-02  3.11e+05   246s
   7   4.15353361e+09 -1.01176995e+11  1.42e+01 4.88e-02  8.96e+04   265s
   8   2.49305189e+09 -2.81813076e+10  2.46e+00 3.05e-02  2.05e+04   286s
   9   5.94861122e+08 -6.66911554e+09  5.02e-01 5.84e-03  4.49e+03   304s
  10   8.96163741e+07 -6.46440512e+08  4.87e-04 7.00e-04  4.33e+02   325s
  11   6.31324923e+07 -5.11432016e+07  3.06e-05 1.28e-04  6.72e+01   347s
  12   5.06713487e+07  3.58170420e+06  7.57e-06 4.87e-05  2.77e+01   374s
  13   4.47630143e+07  2.10319465e+07  3.32e-06 2.49e-05  1.40e+01   397s
  14   4.22274505e+07  2.95771140e+07  1.90e-06 1.36e-05  7.44e+00   418s
  15   4.00852458e+07  3.27086624e+07  9.42e-07 9.40e-06  4.34e+00   436s
  16   3.92842731e+07  3.45214555e+07  6.35e-07 5.91e-06  2.80e+00   454s
  17   3.85397497e+07  3.55477352e+07  3.94e-07 3.80e-06  1.76e+00   474s
  18   3.79535065e+07  3.62876184e+07  2.00e-07 2.23e-06  9.79e-01   494s
  19   3.77892683e+07  3.67266320e+07  1.61e-07 1.30e-06  6.25e-01   512s
  20   3.76655117e+07  3.68990517e+07  1.30e-07 9.02e-07  4.51e-01   529s
  21   3.75897644e+07  3.69909158e+07  1.11e-07 7.05e-07  3.52e-01   547s
  22   3.75484105e+07  3.70363494e+07  1.00e-07 6.16e-07  3.01e-01   564s
  23   3.74906283e+07  3.71072138e+07  9.23e-08 4.44e-07  2.25e-01   581s
  24   3.74741129e+07  3.71385670e+07  8.68e-08 3.71e-07  1.97e-01   598s
  25   3.74375640e+07  3.71501993e+07  7.24e-08 3.44e-07  1.69e-01   614s
  26   3.74081487e+07  3.72157726e+07  5.92e-08 2.05e-07  1.13e-01   632s
  27   3.73724096e+07  3.72443811e+07  5.04e-08 1.37e-07  7.53e-02   651s
  28   3.73574599e+07  3.72625874e+07  7.71e-08 9.35e-08  5.58e-02   673s
  29   3.73373710e+07  3.72758615e+07  5.10e-08 6.18e-08  3.62e-02   696s
  30   3.73280329e+07  3.72857606e+07  3.66e-07 3.81e-08  2.49e-02   721s
  31   3.73230808e+07  3.72887791e+07  8.15e-07 3.07e-08  2.02e-02   744s
  32   3.73179481e+07  3.72950470e+07  1.04e-06 2.25e-08  1.35e-02   770s
  33   3.73121776e+07  3.72990329e+07  6.62e-07 4.06e-08  7.73e-03   793s
  34   3.73095659e+07  3.73007824e+07  7.06e-07 1.63e-08  5.16e-03   817s
  35   3.73068820e+07  3.73010451e+07  4.71e-07 4.49e-08  3.43e-03   839s
  36   3.73059787e+07  3.73011436e+07  3.91e-07 2.71e-08  2.84e-03   858s
  37   3.73058221e+07  3.73012669e+07  3.77e-07 2.97e-08  2.68e-03   877s
  38   3.73047785e+07  3.73017515e+07  5.01e-07 3.25e-08  1.78e-03   898s
  39   3.73038866e+07  3.73018450e+07  3.36e-07 2.18e-08  1.20e-03   920s
  40   3.73034410e+07  3.73019190e+07  3.54e-07 4.74e-08  8.95e-04   944s
  41   3.73031971e+07  3.73020265e+07  3.60e-07 1.31e-08  6.88e-04   969s
  42   3.73029420e+07  3.73020645e+07  5.34e-07 1.35e-08  5.16e-04   992s
  43   3.73027871e+07  3.73020995e+07  6.46e-07 1.38e-08  4.04e-04  1016s
  44   3.73026501e+07  3.73021310e+07  7.27e-07 1.22e-08  3.05e-04  1040s
  45   3.73025524e+07  3.73021567e+07  7.28e-07 3.27e-08  2.33e-04  1065s
  46   3.73025171e+07  3.73021764e+07  6.56e-07 1.91e-08  2.00e-04  1089s
  47   3.73024246e+07  3.73021840e+07  5.36e-07 1.24e-08  1.41e-04  1111s
  48   3.73023682e+07  3.73021897e+07  5.91e-07 2.07e-08  1.05e-04  1134s
  49   3.73023360e+07  3.73022002e+07  6.07e-07 2.42e-08  7.98e-05  1157s
  50   3.73022934e+07  3.73022048e+07  4.55e-07 3.91e-08  5.21e-05  1180s
  51   3.73022690e+07  3.73022094e+07  3.03e-07 1.03e-08  3.50e-05  1205s

Barrier solved model in 51 iterations and 1204.67 seconds (1173.29 work units)
Optimal objective 3.73022690e+07


Root crossover log...

  358432 DPushes remaining with DInf 8.4369045e-02              1206s
  119331 DPushes remaining with DInf 0.0000000e+00              1213s
   93990 DPushes remaining with DInf 0.0000000e+00              1217s
   78963 DPushes remaining with DInf 0.0000000e+00              1220s
   63370 DPushes remaining with DInf 0.0000000e+00              1225s
   48891 DPushes remaining with DInf 0.0000000e+00              1231s
   41016 DPushes remaining with DInf 0.0000000e+00              1236s
   35315 DPushes remaining with DInf 0.0000000e+00              1241s
   28075 DPushes remaining with DInf 0.0000000e+00              1246s
   25193 DPushes remaining with DInf 0.0000000e+00              1252s
   23252 DPushes remaining with DInf 0.0000000e+00              1256s
   21476 DPushes remaining with DInf 0.0000000e+00              1261s
   19793 DPushes remaining with DInf 0.0000000e+00              1265s
   17307 DPushes remaining with DInf 0.0000000e+00              1270s
   14939 DPushes remaining with DInf 0.0000000e+00              1276s
   12692 DPushes remaining with DInf 0.0000000e+00              1281s
   10248 DPushes remaining with DInf 0.0000000e+00              1285s
    8322 DPushes remaining with DInf 0.0000000e+00              1290s
    6951 DPushes remaining with DInf 0.0000000e+00              1295s
    5578 DPushes remaining with DInf 0.0000000e+00              1302s
    4655 DPushes remaining with DInf 0.0000000e+00              1306s
    3103 DPushes remaining with DInf 0.0000000e+00              1311s
    1717 DPushes remaining with DInf 0.0000000e+00              1317s
     791 DPushes remaining with DInf 0.0000000e+00              1321s
       0 DPushes remaining with DInf 0.0000000e+00              1324s

  256764 PPushes remaining with PInf 6.5757117e-02              1324s
   63942 PPushes remaining with PInf 5.0888443e-01              1333s
   36598 PPushes remaining with PInf 4.7256263e-01              1336s
   21579 PPushes remaining with PInf 4.9665743e-01              1340s
   14983 PPushes remaining with PInf 4.9247047e-01              1346s
   11664 PPushes remaining with PInf 4.9521780e-01              1350s
    4536 PPushes remaining with PInf 4.2829215e-01              1360s
     786 PPushes remaining with PInf 6.2571698e-01              1366s
       0 PPushes remaining with PInf 8.5001331e-01              1369s

  Push phase complete: Pinf 8.5001331e-01, Dinf 2.5806664e+07   1369s


Root simplex log...

Iteration    Objective       Primal Inf.    Dual Inf.      Time
  422021    3.7302225e+07   0.000000e+00   2.580666e+07   1370s
  422478    3.7302224e+07   0.000000e+00   4.598153e+06   1375s
  423392    3.7302222e+07   0.000000e+00   6.041723e+05   1382s
  423849    3.7302222e+07   0.000000e+00   8.434919e+03   1385s
  424763    3.7302222e+07   0.000000e+00   8.539781e+03   1390s
  425381    3.7302222e+07   2.855740e-03   0.000000e+00   1395s
  425483    3.7302222e+07   0.000000e+00   0.000000e+00   1398s
  425483    3.7302222e+07   0.000000e+00   0.000000e+00   1400s
Waiting for other threads to finish...        1466s
Waiting for other threads to finish...        1533s
Concurrent spin time: 141.14s

Solved with barrier

Root relaxation: objective 3.730222e+07, 425483 iterations, 1488.34 seconds (1409.43 work units)

    Nodes    |    Current Node    |     Objective Bounds      |     Work
 Expl Unexpl |  Obj  Depth IntInf | Incumbent    BestBd   Gap | It/Node Time

     0     0 3.7302e+07    0  606          - 3.7302e+07      -     - 1567s
     0     0 3.7302e+07    0  606          - 3.7302e+07      -     - 1569s
     0     0 3.7304e+07    0  566          - 3.7304e+07      -     - 1758s
     0     0 3.7304e+07    0  543          - 3.7304e+07      -     - 1838s
     0     0 3.7304e+07    0  521          - 3.7304e+07      -     - 1853s
     0     0 3.7304e+07    0  541          - 3.7304e+07      -     - 1858s
     0     0 3.7305e+07    0  570          - 3.7305e+07      -     - 1902s
     0     0 3.7305e+07    0  566          - 3.7305e+07      -     - 1903s
     0     0 3.7305e+07    0  558          - 3.7305e+07      -     - 1976s
     0     0 3.7305e+07    0  559          - 3.7305e+07      -     - 1981s
     0     0 3.7305e+07    0  512          - 3.7305e+07      -     - 2035s
     0     0 3.7305e+07    0  534          - 3.7305e+07      -     - 2107s
     0     0 3.7305e+07    0  534          - 3.7305e+07      -     - 2111s
     0     0 3.7305e+07    0  519          - 3.7305e+07      -     - 2161s
     0     0 3.7305e+07    0  525          - 3.7305e+07      -     - 2175s
     0     0 3.7305e+07    0  527          - 3.7305e+07      -     - 2179s
     0     0 3.7306e+07    0  490          - 3.7306e+07      -     - 2216s
     0     0 3.7306e+07    0  463          - 3.7306e+07      -     - 2261s
     0     0 3.7306e+07    0  461          - 3.7306e+07      -     - 2265s
     0     0 3.7306e+07    0  523          - 3.7306e+07      -     - 2302s
     0     0 3.7306e+07    0  506          - 3.7306e+07      -     - 2337s
     0     0 3.7306e+07    0  524          - 3.7306e+07      -     - 2342s
     0     0 3.7306e+07    0  510          - 3.7306e+07      -     - 2370s
     0     0 3.7306e+07    0  515          - 3.7306e+07      -     - 2381s
     0     0 3.7306e+07    0  514          - 3.7306e+07      -     - 2386s
     0     0 3.7306e+07    0  472          - 3.7306e+07      -     - 2413s
     0     0 3.7306e+07    0  472          - 3.7306e+07      -     - 2420s
     0     0 3.7306e+07    0  461          - 3.7306e+07      -     - 2446s
     0     0 3.7306e+07    0  453          - 3.7306e+07      -     - 2460s
     0     0 3.7306e+07    0  453          - 3.7306e+07      -     - 2463s
     0     0 3.7306e+07    0  455          - 3.7306e+07      -     - 2489s
     0     0 3.7306e+07    0  469          - 3.7306e+07      -     - 2521s
     0     0 3.7306e+07    0  462          - 3.7306e+07      -     - 2544s
H    0     0                    8.978302e+09 3.7306e+07   100%     - 2546s
     0     0 3.7306e+07    0  424 8.9783e+09 3.7306e+07   100%     - 2567s
H    0     0                    8.978301e+09 3.7306e+07   100%     - 2652s
     0     2 3.7306e+07    0  424 8.9783e+09 3.7306e+07   100%     - 2672s
     1     4 3.7455e+07    1  358 8.9783e+09 3.7306e+07   100% 36187 2880s
     3     8 3.7487e+07    2  341 8.9783e+09 3.7359e+07   100% 26711 3111s
     7    16 3.7495e+07    3  347 8.9783e+09 3.7427e+07   100% 24538 3279s
    15    24 3.7498e+07    4  343 8.9783e+09 3.7438e+07   100% 16620 3429s
    23    32 3.7499e+07    4  395 8.9783e+09 3.7438e+07   100% 12927 3679s
H   31    39                    8.783543e+09 3.7442e+07   100% 11359 3907s
H   32    39                    8.778339e+09 3.7442e+07   100% 11146 3907s
H   33    39                    8.253783e+07 3.7442e+07  54.6% 10853 3907s
    39    47 3.7501e+07    5  336 8.2538e+07 3.7442e+07  54.6%  9752 3969s
    47    57 3.7504e+07    6  388 8.2538e+07 3.7447e+07  54.6%  8664 4033s
    58    66 3.7505e+07    7  371 8.2538e+07 3.7447e+07  54.6%  7493 4103s
    67    74 3.7506e+07    7  385 8.2538e+07 3.7448e+07  54.6%  6839 4154s
H   69    74                    6.007651e+07 3.7448e+07  37.7%  6678 4154s
    75    83 3.7507e+07    8  370 6.0077e+07 3.7448e+07  37.7%  6340 4246s
    84    98 3.7505e+07    8  417 6.0077e+07 3.7448e+07  37.7%  6029 4308s
    99   111 3.7515e+07   10  369 6.0077e+07 3.7449e+07  37.7%  5340 4548s
   115   129 3.7508e+07   13  381 6.0077e+07 3.7449e+07  37.7%  4822 4631s
   135   150 3.7508e+07   16  371 6.0077e+07 3.7449e+07  37.7%  4185 4730s
   157   168 3.7509e+07   20  428 6.0077e+07 3.7449e+07  37.7%  3701 4858s
   176   186 3.7509e+07   23  435 6.0077e+07 3.7449e+07  37.7%  3425 4938s
   197   198 3.7509e+07   26  413 6.0077e+07 3.7449e+07  37.7%  3169 5003s
   221   214 3.7510e+07   30  388 6.0077e+07 3.7449e+07  37.7%  2909 5084s
H  241   230                    6.006116e+07 3.7449e+07  37.6%  2753 5207s
   262   252 3.7514e+07   38  254 6.0061e+07 3.7449e+07  37.6%  2557 5294s
H  291   259                    6.002193e+07 3.7449e+07  37.6%  2352 5378s
   308   269 3.7514e+07   45  230 6.0022e+07 3.7449e+07  37.6%  2259 5484s
   338   292 3.7515e+07   49  236 6.0022e+07 3.7449e+07  37.6%  2106 5570s
H  378   315                    4.281020e+07 3.7449e+07  12.5%  1910 5699s
H  379   315                    4.230091e+07 3.7449e+07  11.5%  1907 5699s
H  381   315                    3.837033e+07 3.7449e+07  2.40%  1898 5699s

Cutting planes:
  Gomory: 38
  Implied bound: 178
  MIR: 90
  Flow cover: 640
  RLT: 30
  Relax-and-lift: 12

Explored 405 nodes (1187158 simplex iterations) in 5699.97 seconds (7096.52 work units)
Thread count was 8 (of 80 available processors)

Solution count 10: 3.83703e+07 3.83703e+07 4.23009e+07 ... 8.9783e+09

Optimal solution found (tolerance 5.00e-02)
Best objective 3.837033463214e+07, best bound 3.744860842123e+07, gap 2.4022%

User-callback calls 1553689, time in user-callback 7.03 sec
